14 47
1 2 1
1 3 1
1 4 1
1 5 1
1 6 1
1 7 1
1 8 1
1 9 1
1 10 0
1 11 1
1 12 1
1 13 0
1 14 1
2 3 0
2 4 0
2 5 0
2 6 1
2 7 1
2 8 1
2 9 0
2 10 1
2 11 0
2 12 0
2 13 1
2 14 1
3 4 1
3 5 1
3 6 1
3 7 1
3 8 1
3 9 1
3 10 0
3 11 0
3 12 0
3 13 0
3 14 0
4 5 0
4 6 0
4 7 1
4 8 0
4 9 1
4 10 0
4 11 0
4 12 1
4 13 0
4 14 1
5 6 1
5 7 0
5 8 0
5 9 0
5 10 0
5 11 0
5 12 0
5 13 1
5 14 0
6 7 1
6 8 0
6 9 0
6 10 1
6 11 0
6 12 0
6 13 1
6 14 1
7 8 0
7 9 1
7 10 1
7 11 0
7 12 0
7 13 1
7 14 1
8 9 0
8 10 0
8 11 0
8 12 1
8 13 1
8 14 0
9 10 1
9 11 0
9 12 1
9 13 1
9 14 0
10 11 0
10 12 1
10 13 1
10 14 1
11 12 1
11 13 0
11 14 1
12 13 0
12 14 0
13 14 0
